Total weight: 1362.8258923607789
Route 1: 0 80 65 82 14 47 15 11 98 69 88 73 16 87 9 53 79 78 12 10 97 59 74 13 17 60 4 8 45 70 100 0 
Route 2: 0 42 39 37 36 44 38 72 71 96 81 61 41 40 1 3 6 7 46 5 2 55 68 43 35 54 93 94 0 
Route 3: 0 24 23 64 67 62 84 99 86 90 0 
Route 4: 0 91 92 95 85 63 33 34 31 29 27 26 28 30 76 51 18 19 49 22 57 20 83 66 56 50 32 89 48 21 25 77 75 58 52 0 
